   5988
   6170
   4267
   5011
   5283
  58258
  50972
  59434
  40978
  53208
 181649
 234179
 178840
 157476
 172995
 407703
 332804
 544838
 477684
 406094
 898925
 556873
 539716
 744287
 585306
      8
    718
     27
    480
     50
  24202
  25469
  32964
  22215
  19114
 108293
 181850
  90440
 151701
 129728
 462324
 425875
 320537
 360193
 306040
 829828
 623356
 748988
 656693
 599269
      0
      0
      0
      0
      0
   9046
  11539
  16313
   7965
  19912
  86793
  87067
  96563
 100788
  56510
 243872
 401023
 399085
 309232
 222684
 640816
 611362
 623429
 584628
 575274
      0
      0
      0
      0
      0
   1400
    317
   1146
    136
    284
  66850
  84229
  55544
  54612
  75061
 248699
 311022
 326258
 273993
 316870
 495516
 636903
 680082
 622464
 449545
      0
      0
      0
      0
      0
      0
   1193
      0
    232
      0
 159123
 174367
  91169
 168266
  70190
 370614
 324437
 246237
 293571
 267316
 471214
 570459
 397029
 431115
 560754


